myproject/instances/20nodes/rnd2_20.tsp
NAME : rnd2_20.tsp
TYPE : TSP
DIMENSION : 20
EDGE_WEIGHT_TYPE : EUC_2D
NODE_COORD_SECTION
1 935 174
2 116 394
3 927 649
4 462 495
5 991 597
6 352 565
7 809 771
8 173 267
9 970 197
10 347 264
11 363 411
12 412 774
13 892 233
14 261 972
15 240 892
16 121 501
17 312 935
18 548 298
19 282 772
20 689 273
