myproject/instances/20nodes/rnd2_20.opt.tour
NAME : rnd2_20.tsp.tsp.optbc.tour
TYPE : TOUR
DIMENSION : 20
TOUR_SECTION
1
13
20
18
11
10
8
2
16
15
14
17
19
12
6
4
7
3
5
9
-1